c Maximum weighted clique instances generated from exactcolors.
c cutoff: 11608019.
c A clique of value > scalef (11608019) defines an improving stable sets for coloring.
p edge 31 0
n 1 11608019
n 2 11608019
n 3 11608019
n 4 11608019
n 5 11608019
n 6 11608019
n 7 11608019
n 8 11608019
n 9 11608019
n 10 11608019
n 11 11608019
n 12 11608019
n 13 11608019
n 14 11608019
n 15 11608019
n 16 11608019
n 17 11608019
n 18 11608019
n 19 11608019
n 20 11608019
n 21 11608019
n 22 11608019
n 23 11608019
n 24 11608019
n 25 11608019
n 26 11608019
n 27 11608019
n 28 11608019
n 29 11608019
n 30 11608019
n 31 11608019
